DATASET = "thpack1";
INSTANCE = "093";

WIDTH = 233;
HEIGHT = 220;
LENGTH = 587;

NO_OF_SHAPES = 3;
size = [|
  78,69,37 |
  115,90,58 |
  68,53,20 |
|];

verticality = [|
  0,1,1 |
  1,1,1 |
  0,0,1 |
|];

box_count = [
  26,
  37,
  37,
];
